NAME: random_60_5
TYPE: TSP
COMMENT: random_60_5
DIMENSION: 60
EDGE_WEIGHT_TYPE: EUC_2D
NODE_COORD_SECTION
1 260 83
2 376 195
3 70 495
4 16 199
5 375 235
6 317 499
7 325 41
8 173 204
9 324 282
10 26 379
11 438 189
12 58 97
13 170 241
14 314 266
15 136 30
16 187 257
17 467 84
18 379 393
19 151 204
20 452 103
21 28 434
22 87 399
23 80 307
24 19 251
25 494 428
26 269 143
27 271 176
28 112 238
29 439 459
30 247 423
31 353 258
32 331 361
33 369 273
34 134 190
35 139 158
36 293 428
37 451 100
38 250 106
39 328 436
40 158 409
41 276 18
42 294 100
43 459 145
44 129 181
45 171 220
46 258 76
47 337 40
48 27 92
49 53 129
50 278 456
51 432 26
52 73 77
53 424 460
54 390 385
55 497 139
56 207 395
57 377 469
58 8 450
59 182 473
60 190 307
